c File: data_files/evolved_graphs/g3843.col
c
c Auto generated graph
c
p edge 100 951
e 1 3
e 1 10
e 1 13
e 1 15
e 1 23
e 1 26
e 1 32
e 1 34
e 1 35
e 1 42
e 1 50
e 1 51
e 1 55
e 1 57
e 1 71
e 1 77
e 1 89
e 2 3
e 2 5
e 2 8
e 2 12
e 2 15
e 2 20
e 2 22
e 2 23
e 2 31
e 2 35
e 2 36
e 2 46
e 2 48
e 2 49
e 2 51
e 2 53
e 2 55
e 2 75
e 2 89
e 2 91
e 2 95
e 2 96
e 3 7
e 3 10
e 3 13
e 3 20
e 3 21
e 3 24
e 3 27
e 3 33
e 3 38
e 3 39
e 3 41
e 3 42
e 3 43
e 3 47
e 3 49
e 3 51
e 3 56
e 3 58
e 3 92
e 3 94
e 3 95
e 4 6
e 4 14
e 4 15
e 4 18
e 4 23
e 4 31
e 4 33
e 4 38
e 4 39
e 4 40
e 4 42
e 4 43
e 4 46
e 4 47
e 4 48
e 4 49
e 4 50
e 4 55
e 4 57
e 4 58
e 4 67
e 4 71
e 4 73
e 4 87
e 4 92
e 4 97
e 4 99
e 5 8
e 5 9
e 5 17
e 5 18
e 5 22
e 5 25
e 5 28
e 5 29
e 5 33
e 5 40
e 5 41
e 5 42
e 5 51
e 5 54
e 5 56
e 5 57
e 5 58
e 5 59
e 5 60
e 5 74
e 5 87
e 5 92
e 5 96
e 6 8
e 6 9
e 6 14
e 6 15
e 6 17
e 6 18
e 6 21
e 6 22
e 6 23
e 6 25
e 6 28
e 6 37
e 6 38
e 6 39
e 6 42
e 6 45
e 6 47
e 6 53
e 6 56
e 6 57
e 6 72
e 6 73
e 6 81
e 6 95
e 6 99
e 7 13
e 7 16
e 7 19
e 7 21
e 7 22
e 7 23
e 7 28
e 7 29
e 7 31
e 7 34
e 7 35
e 7 37
e 7 39
e 7 40
e 7 43
e 7 44
e 7 49
e 7 57
e 7 58
e 7 74
e 7 83
e 7 85
e 7 94
e 7 98
e 8 17
e 8 23
e 8 30
e 8 39
e 8 40
e 8 47
e 8 57
e 8 59
e 8 60
e 8 66
e 8 73
e 8 90
e 8 96
e 9 11
e 9 12
e 9 21
e 9 23
e 9 27
e 9 28
e 9 35
e 9 39
e 9 41
e 9 44
e 9 47
e 9 51
e 9 55
e 9 57
e 9 58
e 9 91
e 9 95
e 10 14
e 10 17
e 10 20
e 10 28
e 10 31
e 10 33
e 10 38
e 10 44
e 10 47
e 10 52
e 10 54
e 10 55
e 10 59
e 10 60
e 10 66
e 10 68
e 10 75
e 10 76
e 10 79
e 10 92
e 10 94
e 10 97
e 11 14
e 11 16
e 11 23
e 11 24
e 11 25
e 11 27
e 11 28
e 11 41
e 11 43
e 11 44
e 11 54
e 11 55
e 11 67
e 11 70
e 11 76
e 11 89
e 11 91
e 11 96
e 11 98
e 11 99
e 12 13
e 12 16
e 12 29
e 12 30
e 12 32
e 12 33
e 12 36
e 12 38
e 12 41
e 12 43
e 12 56
e 12 59
e 12 64
e 12 74
e 12 85
e 12 86
e 12 89
e 12 92
e 12 99
e 12 100
e 13 23
e 13 33
e 13 41
e 13 57
e 13 65
e 13 81
e 13 83
e 13 84
e 13 88
e 13 90
e 13 99
e 14 16
e 14 18
e 14 19
e 14 22
e 14 25
e 14 39
e 14 41
e 14 44
e 14 52
e 14 54
e 14 59
e 14 60
e 14 65
e 14 68
e 14 75
e 14 77
e 14 81
e 14 88
e 15 16
e 15 24
e 15 26
e 15 29
e 15 36
e 15 40
e 15 43
e 15 45
e 15 49
e 15 52
e 15 57
e 15 59
e 15 70
e 15 72
e 15 83
e 15 87
e 15 89
e 15 94
e 15 99
e 16 20
e 16 22
e 16 25
e 16 26
e 16 28
e 16 39
e 16 42
e 16 43
e 16 52
e 16 59
e 16 60
e 16 86
e 17 19
e 17 21
e 17 23
e 17 25
e 17 28
e 17 29
e 17 30
e 17 32
e 17 35
e 17 39
e 17 44
e 17 48
e 17 51
e 17 58
e 17 72
e 17 78
e 17 80
e 17 97
e 17 100
e 18 23
e 18 25
e 18 26
e 18 28
e 18 32
e 18 43
e 18 55
e 18 57
e 18 58
e 18 66
e 18 67
e 18 88
e 18 96
e 18 100
e 19 21
e 19 23
e 19 28
e 19 31
e 19 35
e 19 36
e 19 37
e 19 42
e 19 43
e 19 47
e 19 49
e 19 50
e 19 52
e 19 56
e 19 57
e 19 58
e 19 60
e 19 100
e 20 24
e 20 27
e 20 34
e 20 39
e 20 40
e 20 43
e 20 45
e 20 51
e 20 55
e 20 56
e 20 57
e 20 77
e 20 79
e 20 80
e 20 94
e 21 24
e 21 25
e 21 32
e 21 34
e 21 36
e 21 37
e 21 38
e 21 40
e 21 41
e 21 43
e 21 48
e 21 49
e 21 51
e 21 52
e 21 55
e 21 67
e 21 68
e 21 74
e 21 75
e 22 23
e 22 26
e 22 27
e 22 29
e 22 34
e 22 35
e 22 37
e 22 38
e 22 41
e 22 52
e 22 67
e 22 73
e 22 74
e 23 29
e 23 30
e 23 33
e 23 46
e 23 49
e 23 50
e 23 51
e 23 76
e 24 27
e 24 29
e 24 34
e 24 46
e 24 48
e 24 49
e 24 52
e 24 53
e 24 55
e 24 58
e 24 68
e 24 74
e 24 77
e 24 83
e 24 91
e 25 31
e 25 33
e 25 37
e 25 41
e 25 43
e 25 50
e 25 53
e 25 60
e 25 76
e 25 85
e 25 87
e 25 99
e 26 31
e 26 32
e 26 34
e 26 36
e 26 43
e 26 45
e 26 55
e 26 56
e 26 58
e 26 90
e 27 33
e 27 37
e 27 41
e 27 42
e 27 47
e 27 50
e 27 51
e 27 58
e 27 77
e 27 80
e 27 84
e 27 85
e 27 88
e 27 100
e 28 30
e 28 31
e 28 40
e 28 48
e 28 57
e 28 60
e 28 67
e 28 88
e 28 90
e 28 91
e 28 96
e 28 100
e 29 30
e 29 32
e 29 36
e 29 37
e 29 39
e 29 40
e 29 50
e 29 51
e 29 60
e 29 78
e 29 92
e 29 99
e 30 31
e 30 34
e 30 39
e 30 44
e 30 45
e 30 50
e 30 53
e 30 57
e 30 60
e 30 66
e 30 68
e 30 75
e 30 89
e 30 91
e 30 92
e 30 98
e 31 32
e 31 42
e 31 43
e 31 52
e 31 54
e 31 57
e 31 58
e 31 59
e 31 70
e 31 85
e 31 89
e 31 97
e 31 99
e 32 33
e 32 34
e 32 45
e 32 54
e 32 55
e 32 57
e 32 69
e 32 70
e 32 76
e 32 78
e 32 86
e 32 96
e 33 34
e 33 38
e 33 43
e 33 45
e 33 47
e 33 49
e 33 50
e 33 58
e 33 59
e 33 69
e 33 73
e 33 89
e 34 42
e 34 48
e 34 49
e 34 53
e 34 59
e 34 62
e 34 92
e 34 99
e 35 37
e 35 46
e 35 51
e 35 52
e 35 53
e 35 65
e 35 72
e 35 73
e 35 75
e 35 81
e 35 82
e 35 91
e 35 93
e 36 38
e 36 44
e 36 47
e 36 50
e 36 56
e 36 58
e 36 68
e 36 70
e 36 91
e 36 94
e 36 98
e 36 100
e 37 38
e 37 39
e 37 40
e 37 41
e 37 43
e 37 45
e 37 46
e 37 51
e 37 56
e 37 60
e 37 69
e 37 83
e 37 84
e 37 85
e 37 86
e 37 99
e 38 39
e 38 41
e 38 45
e 38 46
e 38 51
e 38 52
e 38 56
e 38 81
e 38 90
e 38 91
e 38 94
e 38 97
e 38 100
e 39 41
e 39 44
e 39 46
e 39 48
e 39 49
e 39 53
e 39 54
e 39 57
e 39 59
e 39 67
e 39 74
e 39 82
e 39 99
e 40 43
e 40 47
e 40 48
e 40 52
e 40 53
e 40 55
e 40 56
e 40 59
e 40 68
e 40 73
e 40 74
e 40 81
e 40 92
e 41 45
e 41 48
e 41 51
e 41 53
e 41 72
e 41 80
e 41 87
e 41 90
e 42 44
e 42 46
e 42 48
e 42 52
e 42 71
e 42 97
e 42 100
e 43 48
e 43 54
e 43 56
e 43 59
e 43 75
e 43 76
e 43 81
e 43 82
e 43 83
e 43 100
e 44 46
e 44 51
e 44 55
e 44 60
e 44 66
e 44 78
e 44 85
e 44 86
e 44 92
e 44 96
e 44 97
e 44 99
e 45 46
e 45 47
e 45 49
e 45 52
e 45 57
e 45 77
e 45 98
e 45 99
e 46 47
e 46 53
e 46 65
e 46 76
e 46 77
e 46 91
e 46 95
e 46 99
e 47 48
e 47 50
e 47 71
e 47 75
e 47 93
e 47 97
e 47 100
e 48 49
e 48 53
e 48 54
e 48 55
e 48 57
e 48 65
e 48 69
e 48 75
e 48 81
e 48 95
e 48 96
e 48 97
e 48 98
e 48 100
e 49 54
e 49 55
e 49 57
e 49 58
e 49 69
e 49 83
e 49 84
e 50 59
e 50 68
e 50 69
e 50 75
e 50 80
e 50 93
e 50 97
e 51 52
e 51 54
e 51 57
e 51 60
e 51 67
e 51 70
e 51 74
e 51 75
e 51 78
e 52 53
e 52 81
e 52 91
e 52 96
e 53 57
e 53 72
e 53 83
e 53 85
e 54 55
e 54 60
e 54 68
e 54 69
e 54 72
e 54 79
e 55 56
e 55 58
e 55 74
e 55 91
e 55 95
e 55 97
e 56 60
e 56 65
e 56 74
e 56 77
e 56 82
e 56 91
e 56 93
e 56 99
e 57 73
e 57 75
e 57 87
e 58 66
e 58 69
e 58 70
e 58 74
e 58 81
e 58 96
e 59 60
e 59 73
e 59 81
e 59 86
e 59 91
e 59 93
e 60 66
e 60 72
e 60 87
e 60 91
e 60 100
e 61 69
e 61 70
e 61 80
e 61 82
e 61 96
e 62 64
e 62 67
e 62 74
e 62 75
e 62 79
e 62 88
e 62 95
e 62 96
e 63 73
e 63 90
e 64 65
e 64 73
e 64 79
e 64 93
e 64 99
e 64 100
e 65 66
e 65 69
e 65 83
e 65 87
e 65 93
e 65 97
e 65 100
e 66 68
e 66 74
e 66 77
e 66 81
e 66 82
e 66 87
e 66 88
e 66 90
e 66 97
e 67 68
e 67 72
e 67 73
e 67 80
e 67 84
e 67 91
e 67 92
e 67 94
e 67 95
e 68 73
e 68 77
e 68 79
e 68 84
e 68 93
e 68 94
e 68 98
e 68 100
e 69 74
e 69 82
e 69 87
e 69 89
e 69 93
e 69 95
e 69 98
e 69 99
e 70 83
e 70 87
e 70 89
e 70 91
e 70 93
e 70 94
e 70 99
e 71 78
e 71 80
e 71 87
e 71 89
e 71 91
e 72 73
e 72 77
e 72 82
e 72 83
e 72 84
e 72 87
e 72 94
e 73 74
e 73 78
e 73 79
e 73 80
e 73 82
e 73 87
e 73 92
e 73 93
e 73 96
e 73 98
e 74 77
e 74 80
e 74 83
e 74 84
e 74 88
e 74 91
e 74 100
e 75 80
e 75 82
e 75 86
e 75 93
e 75 95
e 75 96
e 75 100
e 76 80
e 76 86
e 76 93
e 76 96
e 77 78
e 77 80
e 77 90
e 77 97
e 77 98
e 77 99
e 78 88
e 78 96
e 78 97
e 78 98
e 78 100
e 79 81
e 79 86
e 79 87
e 79 96
e 79 100
e 80 82
e 80 84
e 80 96
e 80 97
e 81 95
e 82 83
e 82 84
e 82 85
e 82 94
e 83 84
e 83 97
e 84 85
e 84 92
e 84 95
e 84 96
e 84 100
e 85 87
e 85 89
e 85 95
e 85 98
e 86 88
e 86 91
e 86 94
e 86 95
e 86 96
e 86 99
e 87 88
e 87 91
e 87 93
e 88 90
e 88 91
e 88 93
e 88 95
e 88 96
e 88 98
e 88 99
e 89 100
e 91 97
e 91 98
e 92 93
e 92 99
e 92 100
e 93 99
e 94 100
e 95 96
e 95 98
e 96 98
e 97 98
